RT is False
Default write of storage_offers_DA.csv just to have a file (but constraint should be inactive)
Reading model...
...model read.
creating competitive generators file...
...competitive generators recorded.
Loading data...
.. day-ahead data with real-time VRE data read.
Compiling instance...
...instance created.
Creating Offer Mitigation (model will solve as dispatch if TRUE)...
Solving...

Welcome to IBM(R) ILOG(R) CPLEX(R) Interactive Optimizer 12.9.0.0
  with Simplex, Mixed Integer & Barrier Optimizers
5725-A06 5725-A29 5724-Y48 5724-Y49 5724-Y54 5724-Y55 5655-Y21
Copyright IBM Corp. 1988, 2019.  All Rights Reserved.

Type 'help' for a list of available commands.
Type 'help' followed by a command name for more
information on commands.

CPLEX> Logfile 'cplex.log' closed.
Logfile 'C:\Users\llavin\Desktop\test919\logs\tmposiyo5vf.cplex.log' open.
CPLEX> New value for parallel optimization mode: -1
CPLEX> New value for mixed integer optimality gap tolerance: 0.01
CPLEX> New value for integrality tolerance: 1e-09
CPLEX> New value for feasibility tolerance: 0.01
CPLEX> New value for deterministic time limit in ticks: 75000
CPLEX> Problem 'C:\Users\llavin\Desktop\test919\logs\tmpt9uxxtq9.pyomo.lp' read.
Read time = 0.05 sec. (3.04 ticks)
CPLEX> Problem name         : C:\Users\llavin\Desktop\test919\logs\tmpt9uxxtq9.pyomo.lp
Objective sense      : Minimize
Variables            :   26081  [Nneg: 1,  Box: 21616,  Free: 4464]
Objective nonzeros   :    2496
Linear constraints   :   27515  [Less: 14006,  Greater: 4416,  Equal: 9093]
  Nonzeros           :   89267
  RHS nonzeros       :   12271

Variables            : Min LB: -5000.000        Max UB: 1000000.       
Objective nonzeros   : Min   : 15.73158         Max   : 124.0997       
Linear constraints   :
  Nonzeros           : Min   : 0.8500000        Max   : 3000.000       
  RHS nonzeros       : Min   : 0.3083333        Max   : 5000.000       
CPLEX> CPXPARAM_Parallel                                -1
CPXPARAM_Simplex_Tolerances_Feasibility          0.01
CPXPARAM_DetTimeLimit                            75000
CPXPARAM_MIP_Tolerances_MIPGap                   0.01
CPXPARAM_MIP_Tolerances_Integrality              1.0000000000000001e-09
Parallel mode: opportunistic, using up to 32 threads for concurrent optimization.
Tried aggregator 1 time.
LP Presolve eliminated 21353 rows and 15463 columns.
Aggregator did 770 substitutions.
Reduced LP has 5392 rows, 9848 columns, and 31812 nonzeros.
Presolve time = 0.06 sec. (30.44 ticks)
Symmetry aggregator did 5563 additional substitutions.

Iteration log . . .
Iteration:     1   Dual objective     =             0.000000
Perturbation started.
Iteration:   101   Dual objective     =             0.000000
Iteration:   331   Dual objective     =             1.128310
Iteration:   582   Dual objective     =             1.659323
Iteration:   839   Dual objective     =             1.797945
Iteration:  1041   Dual objective     =             1.911697
Iteration:  1321   Dual objective     =             1.957293
Iteration:  1571   Dual objective     =             1.987705
Iteration:  1800   Dual objective     =             2.008149
Iteration:  2009   Dual objective     =             2.030304
Iteration:  2203   Dual objective     =             2.043824
Iteration:  2435   Dual objective     =             2.053962
Iteration:  2679   Dual objective     =          9713.859581
Iteration:  3035   Dual objective     =         14019.957564
Removing perturbation.
Using devex.

Primal simplex solved model.


Primal simplex - Optimal:  Objective =  1.4017891273e+04
Solution time =    0.16 sec.  Iterations = 1632 (1147)
Deterministic time = 79.24 ticks  (507.92 ticks/sec)

CPLEX> Solution written to file 'C:\Users\llavin\Desktop\test919\logs\tmp9sme1kn0.cplex.sol'.
CPLEX> Exporting results... 
...storage offer mitigation file created
Converting model to MPEC...
...converted
NOTE: initial MIP solve with only storage competitive to get feasible solution
Solving...

Welcome to IBM(R) ILOG(R) CPLEX(R) Interactive Optimizer 12.9.0.0
  with Simplex, Mixed Integer & Barrier Optimizers
5725-A06 5725-A29 5724-Y48 5724-Y49 5724-Y54 5724-Y55 5655-Y21
Copyright IBM Corp. 1988, 2019.  All Rights Reserved.

Type 'help' for a list of available commands.
Type 'help' followed by a command name for more
information on commands.

CPLEX> Logfile 'cplex.log' closed.
Logfile 'C:\Users\llavin\Desktop\test919\logs\tmplj2crujh.cplex.log' open.
CPLEX> New value for parallel optimization mode: -1
CPLEX> New value for mixed integer optimality gap tolerance: 0.01
CPLEX> New value for integrality tolerance: 1e-09
CPLEX> New value for feasibility tolerance: 0.01
CPLEX> New value for deterministic time limit in ticks: 75000
CPLEX> Problem 'C:\Users\llavin\Desktop\test919\logs\tmpojlxcayp.pyomo.lp' read.
Read time = 0.25 sec. (14.78 ticks)
CPLEX> Problem name         : C:\Users\llavin\Desktop\test919\logs\tmpojlxcayp.pyomo.lp
Objective sense      : Maximize
Variables            :   53805  [Nneg: 1,  Box: 22000,  Free: 4464,
                                 Binary: 27340]
Objective nonzeros   :    8980
Linear constraints   :  123205  [Less: 41346,  Greater: 59096,  Equal: 22763]
  Nonzeros           :  291801
  RHS nonzeros       :   67416

Variables            : Min LB: -5000.000        Max UB: 1000000.       
Objective nonzeros   : Min   : 0.3083333        Max   : 832.3333       
Linear constraints   :
  Nonzeros           : Min   : 0.3083333        Max   : 1000000.       
  RHS nonzeros       : Min   : 0.3083333        Max   : 1000000.       
CPLEX> CPXPARAM_Parallel                                -1
CPXPARAM_Simplex_Tolerances_Feasibility          0.01
CPXPARAM_DetTimeLimit                            75000
CPXPARAM_MIP_Tolerances_MIPGap                   0.01
CPXPARAM_MIP_Tolerances_Integrality              1.0000000000000001e-09
Tried aggregator 3 times.
MIP Presolve eliminated 88621 rows and 18921 columns.
MIP Presolve added 3393 rows and 0 columns.
MIP Presolve modified 24888 coefficients.
Aggregator did 13022 substitutions.
Reduced MIP has 24955 rows, 21306 columns, and 71195 nonzeros.
Reduced MIP has 8414 binaries, 0 generals, 0 SOSs, and 0 indicators.
Presolve time = 0.30 sec. (173.95 ticks)
Probing fixed 387 vars, tightened 2838 bounds.
Probing time = 1.19 sec. (869.32 ticks)
Tried aggregator 2 times.
MIP Presolve eliminated 874 rows and 774 columns.
MIP Presolve modified 2192 coefficients.
Aggregator did 33 substitutions.
Reduced MIP has 24048 rows, 20499 columns, and 68574 nonzeros.
Reduced MIP has 8027 binaries, 0 generals, 0 SOSs, and 0 indicators.
Presolve time = 0.11 sec. (66.91 ticks)
Probing fixed 0 vars, tightened 1 bounds.
Probing time = 0.06 sec. (20.73 ticks)
Clique table members: 6263.
MIP emphasis: balance optimality and feasibility.
MIP search method: dynamic search.
Parallel mode: opportunistic, using up to 32 threads.
Root relaxation solution time = 0.45 sec. (307.58 ticks)

        Nodes                                         Cuts/
   Node  Left     Objective  IInf  Best Integer    Best Bound    ItCnt     Gap

      0     0     2979.5451  1594                   2979.5451     6250         
      0     0     2979.5451     4                     Cuts: 7     6252         
      0     0     2979.5451     2                     Cuts: 8     6254         
      0    25     2465.8354     5                 Flowcuts: 1     6381         
Elapsed time = 8.30 sec. (4745.21 ticks, tree = 0.02 MB, solutions = 1)
*   255    55      integral     0     2193.5766     2818.7481     6676   28.50%
*   266    58      integral     0     2818.7481     2818.7481     6657    0.00%

Flow cuts applied:  2
Mixed integer rounding cuts applied:  4
Gomory fractional cuts applied:  3

Root node processing (before b&c):
  Real time             =    7.02 sec. (4722.44 ticks)
Parallel b&c, 32 threads:
  Real time             =    1.83 sec. (246.10 ticks)
  Sync time (average)   =    0.38 sec.
  Wait time (average)   =    0.00 sec.
                          ------------
Total (root+branch&cut) =    8.84 sec. (4968.55 ticks)

Solution pool: 2 solutions saved.

MIP - Integer optimal solution:  Objective =  2.8187481297e+03
Solution time =    8.89 sec.  Iterations = 7920  Nodes = 287
Deterministic time = 4968.70 ticks  (558.85 ticks/sec)

CPLEX> Incumbent solution written to file 'C:\Users\llavin\Desktop\test919\logs\tmp5_ah07mf.cplex.sol'.
CPLEX> NOTE: no warmstart specified for MIP iteration, default behavior is true
NOTE: resolving with all competitive generators using storage-only solution to warmstart
Solving...

Welcome to IBM(R) ILOG(R) CPLEX(R) Interactive Optimizer 12.9.0.0
  with Simplex, Mixed Integer & Barrier Optimizers
5725-A06 5725-A29 5724-Y48 5724-Y49 5724-Y54 5724-Y55 5655-Y21
Copyright IBM Corp. 1988, 2019.  All Rights Reserved.

Type 'help' for a list of available commands.
Type 'help' followed by a command name for more
information on commands.

CPLEX> Logfile 'cplex.log' closed.
Logfile 'C:\Users\llavin\Desktop\test919\logs\tmpcscwcn90.cplex.log' open.
CPLEX> New value for parallel optimization mode: -1
CPLEX> New value for mixed integer optimality gap tolerance: 0.01
CPLEX> New value for integrality tolerance: 1e-09
CPLEX> New value for feasibility tolerance: 0.01
CPLEX> New value for deterministic time limit in ticks: 75000
CPLEX> Problem 'C:\Users\llavin\Desktop\test919\logs\tmp98tewny9.pyomo.lp' read.
Read time = 0.25 sec. (14.81 ticks)
CPLEX> MIP start file 'C:\Users\llavin\Desktop\test919\logs\tmpi0g535wr.cplex.mst' read.
CPLEX> Problem name         : C:\Users\llavin\Desktop\test919\logs\tmp98tewny9.pyomo.lp
Objective sense      : Maximize
Variables            :   54525  [Nneg: 1,  Box: 22720,  Free: 4464,
                                 Binary: 27340]
Objective nonzeros   :    9676
Linear constraints   :  123205  [Less: 41346,  Greater: 59096,  Equal: 22763]
  Nonzeros           :  291801
  RHS nonzeros       :   67416

Variables            : Min LB: -5000.000        Max UB: 1000000.       
Objective nonzeros   : Min   : 0.3083333        Max   : 786.7333       
Linear constraints   :
  Nonzeros           : Min   : 0.3083333        Max   : 1000000.       
  RHS nonzeros       : Min   : 0.3083333        Max   : 1000000.       
CPLEX> CPXPARAM_Parallel                                -1
CPXPARAM_Simplex_Tolerances_Feasibility          0.01
CPXPARAM_DetTimeLimit                            75000
CPXPARAM_MIP_Tolerances_MIPGap                   0.01
CPXPARAM_MIP_Tolerances_Integrality              1.0000000000000001e-09
Warning:  No solution found from 1 MIP starts.
Retaining values of one MIP start for possible repair.
Tried aggregator 3 times.
MIP Presolve eliminated 88621 rows and 19641 columns.
MIP Presolve added 3393 rows and 0 columns.
MIP Presolve modified 24888 coefficients.
Aggregator did 13022 substitutions.
Reduced MIP has 24955 rows, 21306 columns, and 71195 nonzeros.
Reduced MIP has 8414 binaries, 0 generals, 0 SOSs, and 0 indicators.
Presolve time = 0.30 sec. (174.31 ticks)
Probing fixed 387 vars, tightened 2838 bounds.
Probing time = 1.19 sec. (869.32 ticks)
Tried aggregator 2 times.
MIP Presolve eliminated 874 rows and 774 columns.
MIP Presolve modified 2192 coefficients.
Aggregator did 33 substitutions.
Reduced MIP has 24048 rows, 20499 columns, and 68574 nonzeros.
Reduced MIP has 8027 binaries, 0 generals, 0 SOSs, and 0 indicators.
Presolve time = 0.09 sec. (66.91 ticks)
Probing fixed 0 vars, tightened 1 bounds.
Probing time = 0.05 sec. (20.73 ticks)
Clique table members: 6263.
MIP emphasis: balance optimality and feasibility.
MIP search method: dynamic search.
Parallel mode: opportunistic, using up to 32 threads.
Root relaxation solution time = 0.38 sec. (276.40 ticks)

        Nodes                                         Cuts/
   Node  Left     Objective  IInf  Best Integer    Best Bound    ItCnt     Gap

      0     0   117305.8064  1707                 117305.8064     6585         
      0     0   112996.8046   666                   Cuts: 772     7007         
      0     0   111584.4860   554                   Cuts: 312     7242         
      0     0   111444.8152   506                   Cuts: 130     7308         
      0     0   111444.8152   483                    Cuts: 87     7361         
      0     0   111444.8152   460                    Cuts: 73     7397         
      0     0   111444.8152   450                    Cuts: 65     7427         
      0     0   111444.8152   437                    Cuts: 50     7450         
      0     0   107286.5107   420                    Cuts: 46     7554         
      0     0   107268.3062   413                    Cuts: 67     7571         
      0     0   107268.3062   405                    Cuts: 48     7582         
      0     0   107268.3062   404                    Cuts: 31     7583         
Repair heuristic found nothing.
      0     4    infeasible                        78102.0484     8308         
Elapsed time = 11.44 sec. (7265.81 ticks, tree = 0.02 MB, solutions = 0)
    468   215    44177.3676   309                  50212.7649    11019         
    911   610    38821.5285   287                  50212.7649    14826         
   1470  1261    32111.6247   274                  50212.7649    20257         
   2443  1695   -34089.5735   251                  50212.7649    21636         
   3891  2045    31794.7873   263                  50212.7649    22188         
   5019  4277   -34089.5735   245                  50212.7649    22643         
   6166  4829     6304.7070   247                  50212.7649    22697         
   7135  6185    31794.7873   248                  50212.7649    23334         
*  8091+ 3306                        16938.6445    50212.7649           196.44%
  11483  3691    34119.5617   292    17960.3344    50212.7649    30387  179.58%
Elapsed time = 28.88 sec. (10360.07 ticks, tree = 26.13 MB, solutions = 9)
  13755  4099    29868.4603   272    17960.3344    50212.7649    32074  179.58%
* 14541  4401      integral     0    18919.1204    50212.7649    33258  165.41%
  14812  4617    25795.4777   270    18919.1204    50212.7649    34829  165.41%
  15179  4361        cutoff          18919.1204    50212.7649    34946  165.41%
  15182  8612        cutoff          18919.1204    31720.5862    53498   67.66%
  16386   132    19437.6227    72    18919.1204    28308.1032    56625   49.63%
  17510   611        cutoff          18919.1204    25929.3623    68837   37.05%
  19978   683    19075.5778    52    18919.1204    21166.7689   103682   11.88%
  22010   695        cutoff          18919.1204    19624.9898   106278    3.73%
  22339   220        cutoff          18919.1204    19350.6886   134559    2.28%
  22361   228    19072.3335    55    18919.1204    19350.6886   134341    2.28%
Elapsed time = 62.06 sec. (24858.84 ticks, tree = 2.56 MB, solutions = 10)

Clique cuts applied:  3
Cover cuts applied:  14
Implied bound cuts applied:  23
Flow cuts applied:  316
Mixed integer rounding cuts applied:  36
Gomory fractional cuts applied:  90

Root node processing (before b&c):
  Real time             =   10.52 sec. (7262.08 ticks)
Parallel b&c, 32 threads:
  Real time             =   51.97 sec. (17701.28 ticks)
  Sync time (average)   =    3.43 sec.
  Wait time (average)   =    0.26 sec.
                          ------------
Total (root+branch&cut) =   62.48 sec. (24963.36 ticks)

Solution pool: 10 solutions saved.

MIP - Integer optimal, tolerance (0.01/1e-06):  Objective =  1.8919120408e+04
Current MIP best bound =  1.9107438196e+04 (gap = 188.318, 1.00%)
Solution time =   62.53 sec.  Iterations = 136150  Nodes = 22363 (211)
Deterministic time = 24963.51 ticks  (399.22 ticks/sec)

CPLEX> Incumbent solution written to file 'C:\Users\llavin\Desktop\test919\logs\tmp67nqkh_1.cplex.sol'.
CPLEX> Exporting results... 
